116561
[0, 2, 1, 51, 50, 49, 47, 46, 48, 45, 44, 42, 43, 41, 40, 39, 38, 37, 36, 35, 34, 33, 32, 58, 59, 60, 74, 75, 76, 86, 85, 77, 57, 56, 78, 79, 80, 81, 55, 54, 53, 52, 82, 83, 84, 185, 148, 186, 229, 280, 281, 225, 226, 228, 227, 282, 283, 341, 340, 342, 343, 438, 434, 435, 436, 437, 433, 402, 407, 408, 425, 431, 432, 429, 426, 421, 422, 423, 424, 409, 410, 411, 412, 406, 405, 398, 391, 390, 395, 396, 397, 392, 394, 393, 383, 381, 382, 371, 370, 372, 373, 374, 380, 379, 378, 388, 389, 413, 420, 419, 418, 414, 415, 430, 428, 427, 417, 416, 404, 403, 401, 399, 400, 387, 386, 385, 384, 377, 366, 367, 368, 360, 361, 362, 363, 364, 365, 331, 329, 330, 328, 327, 326, 325, 324, 323, 322, 321, 320, 319, 318, 317, 316, 315, 314, 313, 312, 311, 310, 309, 308, 307, 306, 305, 304, 303, 302, 301, 300, 272, 273, 274, 275, 276, 277, 278, 293, 294, 295, 296, 297, 298, 299, 332, 333, 334, 335, 336, 337, 338, 359, 369, 292, 291, 290, 289, 288, 287, 348, 349, 350, 351, 353, 356, 358, 357, 355, 354, 352, 376, 375, 344, 345, 347, 346, 339, 286, 285, 284, 279, 231, 230, 224, 187, 188, 109, 110, 111, 145, 146, 147, 144, 143, 107, 108, 73, 72, 63, 64, 65, 66, 67, 68, 69, 70, 71, 87, 88, 89, 90, 106, 105, 104, 103, 112, 113, 114, 102, 101, 91, 92, 93, 99, 100, 122, 121, 119, 116, 120, 118, 117, 115, 141, 140, 139, 138, 137, 136, 135, 134, 133, 162, 161, 160, 159, 158, 157, 156, 155, 154, 153, 152, 150, 151, 142, 149, 184, 189, 223, 222, 221, 220, 219, 218, 217, 216, 215, 214, 213, 212, 211, 210, 209, 249, 250, 248, 247, 246, 245, 244, 243, 242, 241, 240, 239, 238, 237, 236, 235, 234, 233, 232, 271, 270, 269, 268, 267, 266, 265, 264, 263, 262, 261, 260, 259, 258, 257, 256, 255, 253, 254, 251, 252, 208, 207, 206, 205, 204, 202, 201, 200, 199, 198, 197, 196, 195, 194, 193, 192, 190, 183, 191, 182, 181, 180, 179, 178, 177, 176, 175, 174, 203, 173, 172, 171, 170, 169, 167, 168, 165, 163, 164, 166, 132, 131, 130, 129, 127, 128, 126, 125, 123, 124, 98, 97, 96, 95, 94, 17, 18, 19, 20, 21, 23, 22, 24, 25, 26, 27, 28, 62, 29, 30, 61, 31, 16, 15, 14, 13, 12, 11, 10, 9, 8, 7, 6, 5, 4, 3]
